Optimize a model with 6160 rows, 204751 columns and 2110545 nonzeros
Variable types: 0 continuous, 204751 integer (202091 binary)
Coefficient statistics:
  Matrix range     [1e+00, 1e+02]
  Objective range  [1e+00, 2e+03]
  Bounds range     [1e+00, 9e+01]
  RHS range        [1e+00, 2e+03]
Presolve removed 723 rows and 28860 columns (presolve time = 5s) ...
Presolve removed 729 rows and 28866 columns
Presolve time: 7.01s
Presolved: 5431 rows, 175885 columns, 1532748 nonzeros
Variable types: 0 continuous, 175885 integer (174458 binary)

Root simplex log...

Iteration    Objective       Primal Inf.    Dual Inf.      Time
       0   -1.0362495e+07   1.896716e+05   0.000000e+00      7s
    8803    1.2477172e+05   7.392060e+02   0.000000e+00     10s
   11510    1.2536716e+05   0.000000e+00   0.000000e+00     13s

Root relaxation: objective 1.253672e+05, 11510 iterations, 6.20 seconds

    Nodes    |    Current Node    |     Objective Bounds      |     Work
 Expl Unexpl |  Obj  Depth IntInf | Incumbent    BestBd   Gap | It/Node Time

     0     0 125367.163    0  691          - 125367.163      -     -   15s
     0     0 126981.102    0  955          - 126981.102      -     -   31s
     0     0 127123.806    0  876          - 127123.806      -     -   35s
     0     0 127412.941    0  913          - 127412.941      -     -   43s
H    0     0                    130642.00000 127412.941  2.47%     -   46s
H    0     0                    128159.00000 127412.941  0.58%     -   91s
     0     0 127439.738    0  860 128159.000 127439.738  0.56%     -   93s
     0     0 127474.847    0  819 128159.000 127474.847  0.53%     -   98s
     0     0 127501.578    0  980 128159.000 127501.578  0.51%     -  104s
     0     0 127562.710    0  900 128159.000 127562.710  0.47%     -  108s
     0     0 127571.065    0  834 128159.000 127571.065  0.46%     -  112s
     0     0 127588.452    0  799 128159.000 127588.452  0.45%     -  116s
     0     0 127594.015    0  841 128159.000 127594.015  0.44%     -  120s
     0     0 127616.809    0  832 128159.000 127616.809  0.42%     -  126s
     0     0 127623.794    0  963 128159.000 127623.794  0.42%     -  129s
     0     0 127639.229    0  941 128159.000 127639.229  0.41%     -  134s
     0     0 127646.863    0  968 128159.000 127646.863  0.40%     -  138s
     0     0 127653.202    0  970 128159.000 127653.202  0.39%     -  140s
     0     0 127656.828    0  994 128159.000 127656.828  0.39%     -  143s
     0     0 127661.701    0  895 128159.000 127661.701  0.39%     -  146s
     0     0 127663.120    0  888 128159.000 127663.120  0.39%     -  148s
     0     0 127680.222    0  841 128159.000 127680.222  0.37%     -  152s
     0     0 127681.281    0  862 128159.000 127681.281  0.37%     -  153s
     0     0 127690.383    0  843 128159.000 127690.383  0.37%     -  156s
     0     0 127692.286    0  841 128159.000 127692.286  0.36%     -  159s
     0     0 127693.715    0  893 128159.000 127693.715  0.36%     -  160s
     0     0 127700.658    0  885 128159.000 127700.658  0.36%     -  162s
     0     0 127704.442    0  814 128159.000 127704.442  0.35%     -  167s
     0     0 127704.898    0  863 128159.000 127704.898  0.35%     -  169s
     0     0 127723.732    0  844 128159.000 127723.732  0.34%     -  172s
     0     0 127724.569    0  845 128159.000 127724.569  0.34%     -  175s
     0     0 127725.016    0  875 128159.000 127725.016  0.34%     -  176s
     0     0 127725.042    0  888 128159.000 127725.042  0.34%     -  177s
     0     0 127725.333    0  817 128159.000 127725.333  0.34%     -  182s
     0     0 127725.370    0  833 128159.000 127725.370  0.34%     -  184s
     0     0 127725.468    0  840 128159.000 127725.468  0.34%     -  187s
     0     0 127725.468    0  840 128159.000 127725.468  0.34%     -  199s
H    0     0                    128126.00000 127725.468  0.31%     -  274s
H    0     0                    128072.00000 127725.468  0.27%     -  410s
     0     0 127725.468    0  662 128072.000 127725.468  0.27%     -  471s
     0     0 127725.468    0 1017 128072.000 127725.468  0.27%     -  558s
     0     0 127725.468    0  899 128072.000 127725.468  0.27%     -  624s
     0     0 127725.468    0  971 128072.000 127725.468  0.27%     -  678s
     0     0 127725.468    0  993 128072.000 127725.468  0.27%     -  728s
     0     0 127725.468    0  892 128072.000 127725.468  0.27%     -  753s
     0     0 127726.414    0  838 128072.000 127726.414  0.27%     -  768s
     0     0 127731.195    0  788 128072.000 127731.195  0.27%     -  778s
     0     0 127736.615    0  997 128072.000 127736.615  0.26%     -  802s
     0     0 127771.526    0  857 128072.000 127771.526  0.23%     -  823s
     0     0 127771.802    0 1016 128072.000 127771.802  0.23%     -  833s
     0     0 127773.126    0  880 128072.000 127773.126  0.23%     -  844s
     0     0 127774.424    0  878 128072.000 127774.424  0.23%     -  859s
     0     0 127774.477    0  780 128072.000 127774.477  0.23%     -  881s
     0     0 127774.488    0  790 128072.000 127774.488  0.23%     -  892s
     0     0 127774.489    0  792 128072.000 127774.489  0.23%     -  902s
     0     0 127774.489    0  792 128072.000 127774.489  0.23%     -  945s
H    0     0                    127997.00000 127774.489  0.17%     - 1362s
     0     0 127774.489    0  684 127997.000 127774.489  0.17%     - 1418s
     0     0 127774.489    0  857 127997.000 127774.489  0.17%     - 1534s
     0     0 127774.489    0  962 127997.000 127774.489  0.17%     - 1607s
     0     0 127774.489    0  916 127997.000 127774.489  0.17%     - 1661s
     0     0 127774.489    0  833 127997.000 127774.489  0.17%     - 1713s
     0     0 127774.489    0 1062 127997.000 127774.489  0.17%     - 1738s
     0     0 127774.489    0  906 127997.000 127774.489  0.17%     - 1756s
     0     0 127774.489    0  918 127997.000 127774.489  0.17%     - 1772s
     0     0 127774.489    0  834 127997.000 127774.489  0.17%     - 1792s
     0     0 127774.489    0  838 127997.000 127774.489  0.17%     - 1802s
     0     0 127774.777    0  838 127997.000 127774.777  0.17%     - 1813s
     0     0 127774.940    0  862 127997.000 127774.940  0.17%     - 1817s
     0     0 127775.542    0  881 127997.000 127775.542  0.17%     - 1824s
     0     0 127775.543    0  776 127997.000 127775.543  0.17%     - 1840s
     0     0 127775.543    0  793 127997.000 127775.543  0.17%     - 1849s
     0     0 127777.303    0  717 127997.000 127777.303  0.17%     - 1869s
     0     0 127777.434    0  836 127997.000 127777.434  0.17%     - 1882s
     0     0 127777.589    0  812 127997.000 127777.589  0.17%     - 1899s
     0     0 127777.589    0  810 127997.000 127777.589  0.17%     - 1933s
     0     2 127777.589    0  799 127997.000 127777.589  0.17%     - 2228s
     1     5 127815.387    1  785 127997.000 127780.364  0.17%  1380 2294s
     3     8 127834.631    2  764 127997.000 127797.047  0.16%   775 2405s
     7    16 127867.371    3  858 127997.000 127814.572  0.14%   871 2444s
    15    32 127877.544    4  848 127997.000 127839.421  0.12%   761 2510s
    31    48 127880.498    5  710 127997.000 127854.952  0.11%   878 2535s
    47    63 127887.897    6  727 127997.000 127855.433  0.11%   776 2577s
    63    79 127890.374    7  667 127997.000 127855.433  0.11%   690 2589s
    79    82 127895.374    8  664 127997.000 127855.433  0.11%   618 2597s
    95    93 127900.429    9  664 127997.000 127855.433  0.11%   563 2726s
   122   118 127904.735   11  678 127997.000 127855.433  0.11%   484 2741s
   148   135 127918.244   12  571 127997.000 127855.433  0.11%   463 2758s
   173   159 127918.463   13  585 127997.000 127855.433  0.11%   439 2764s
   200   182 127922.214   14  612 127997.000 127855.433  0.11%   430 2772s
   238   201 127925.038   17  547 127997.000 127855.433  0.11%   400 2779s
   280   232 127934.783   19  509 127997.000 127855.433  0.11%   366 2790s
   325   268 127938.660   20  471 127997.000 127855.433  0.11%   345 2804s
   367   290 127949.677   22  451 127997.000 127856.317  0.11%   334 2816s
   418   330 127944.651   24  532 127997.000 127856.317  0.11%   314 2827s
   476   361 127951.808   29  531 127997.000 127856.317  0.11%   298 2835s
   528   389 127957.784   33  429 127997.000 127856.317  0.11%   285 2846s
   584   408 127955.978   35  446 127997.000 127856.317  0.11%   275 2887s
   645   451 127956.991   40  452 127997.000 127856.317  0.11%   269 2900s
   699   501 127959.858   45  368 127997.000 127857.713  0.11%   265 2916s
   751   534 127962.957   52  349 127997.000 127857.713  0.11%   261 2934s
   820   598 127975.118   57  300 127997.000 127858.612  0.11%   256 2944s
   894   656 127881.443    6  822 127997.000 127858.612  0.11%   249 2964s
   984   712 127895.819    7  770 127997.000 127858.612  0.11%   242 2977s
  1085   772 127905.362    8  743 127997.000 127858.612  0.11%   232 3007s
  1174   831 127906.327    9  788 127997.000 127866.734  0.10%   227 3023s
  1249   883 127912.856   11  924 127997.000 127866.734  0.10%   225 3041s
  1360   961 127923.109   14  724 127997.000 127866.734  0.10%   217 3055s
H 1478   817                    127971.00000 127866.734  0.08%   210 3429s
H 1488   788                    127967.00000 127866.734  0.08%   210 3429s
H 1491   775                    127966.00000 127866.734  0.08%   210 3430s

Cutting planes:
  Cover: 342
  Implied bound: 1
  Clique: 331
  MIR: 249
  StrongCG: 6
  GUB cover: 6
  Zero half: 44

Explored 1494 nodes (426453 simplex iterations) in 3430.32 seconds
Thread count was 32 (of 32 available processors)

Solution count 8: 127966 127967 127971 ... 130642
Pool objective bound 127867

Optimal solution found (tolerance 1.00e-03)
Best objective 1.279660000000e+05, best bound 1.278670000000e+05, gap 0.0774%
	MIPObjVal:	127966.0	runtime:	3430.382733106613	patientsNumber:	644
RoomCost:	40640	FeaturesCost:	28540	PreferenceCost:	8510	SpecialismCost:	3440	FixedGenderCost:	150	
GenderPolicy:	50	
TransferCost:	0	
DelayCost:	5735	
OvercrowdRisk:	91	
IdleRoom:	12240	
IdleOR:	68100	
OROORTO:	1110	
OverRC:	0	
ORUORTU:	0	
Violations:	0	Total ObjVal:	127966
The static result in	./Results/or_pas_dept4_short00_sol.xml	violations:	0	total ObjVal:	127966	runtime:	3435.522	average_patient_number:	644
